c Created with the Wolfram Language : www.wolfram.com
c 
p edge 70 365
e 2 4
e 3 4
e 3 6
e 4 7
e 5 9
e 6 9
e 8 10
e 6 11
e 10 11
e 5 12
e 7 12
e 6 13
e 8 13
e 5 14
e 3 15
e 11 16
e 12 16
e 1 17
e 2 17
e 8 17
e 15 17
e 4 19
e 17 19
e 6 20
e 8 20
e 2 21
e 8 21
e 18 21
e 1 22
e 2 22
e 4 22
e 7 22
e 14 22
e 4 23
e 5 23
e 8 23
e 16 23
e 17 23
e 3 24
e 10 24
e 11 24
e 15 24
e 2 25
e 3 25
e 6 25
e 23 25
e 13 26
e 16 26
e 20 26
e 6 27
e 11 27
e 15 27
e 25 27
e 26 27
e 9 28
e 20 28
e 23 28
e 24 28
e 1 29
e 9 29
e 12 29
e 14 29
e 21 29
e 7 30
e 9 30
e 10 30
e 16 30
e 17 30
e 20 30
e 27 30
e 29 30
e 22 31
e 30 31
e 3 32
e 12 32
e 14 32
e 16 32
e 11 33
e 12 33
e 13 33
e 32 33
e 11 34
e 16 34
e 18 34
e 20 34
e 32 35
e 4 36
e 13 36
e 29 36
e 33 36
e 19 37
e 25 37
e 1 38
e 9 38
e 13 38
e 16 38
e 24 38
e 25 38
e 26 38
e 27 38
e 32 38
e 1 39
e 8 39
e 12 39
e 14 39
e 25 39
e 27 39
e 31 39
e 6 40
e 11 40
e 16 40
e 17 40
e 18 40
e 22 40
e 29 40
e 33 40
e 34 40
e 1 41
e 23 41
e 24 41
e 29 41
e 35 41
e 36 41
e 6 42
e 9 42
e 13 42
e 17 42
e 19 42
e 25 42
e 34 42
e 7 43
e 9 43
e 11 43
e 20 43
e 21 43
e 24 43
e 32 43
e 39 43
e 3 44
e 4 44
e 5 44
e 17 44
e 23 44
e 38 44
e 6 45
e 20 45
e 21 45
e 22 45
e 23 45
e 25 45
e 34 45
e 37 45
e 40 45
e 41 45
e 42 45
e 24 46
e 28 46
e 29 46
e 33 46
e 44 46
e 2 47
e 5 47
e 6 47
e 8 47
e 36 47
e 43 47
e 44 47
e 4 48
e 16 48
e 17 48
e 27 48
e 28 48
e 35 48
e 42 48
e 43 48
e 3 49
e 12 49
e 20 49
e 21 49
e 34 49
e 36 49
e 9 50
e 24 50
e 28 50
e 31 50
e 43 50
e 47 50
e 13 51
e 17 51
e 19 51
e 42 51
e 45 51
e 5 52
e 10 52
e 11 52
e 24 52
e 37 52
e 50 52
e 4 53
e 5 53
e 10 53
e 24 53
e 26 53
e 37 53
e 48 53
e 50 53
e 2 54
e 4 54
e 11 54
e 13 54
e 24 54
e 31 54
e 38 54
e 46 54
e 48 54
e 53 54
e 1 55
e 16 55
e 17 55
e 28 55
e 29 55
e 31 55
e 38 55
e 47 55
e 49 55
e 53 55
e 54 55
e 1 56
e 14 56
e 40 56
e 42 56
e 54 56
e 10 57
e 15 57
e 21 57
e 24 57
e 26 57
e 55 57
e 5 58
e 7 58
e 9 58
e 18 58
e 39 58
e 40 58
e 48 58
e 49 58
e 6 59
e 7 59
e 18 59
e 22 59
e 31 59
e 38 59
e 48 59
e 49 59
e 51 59
e 58 59
e 6 60
e 8 60
e 12 60
e 18 60
e 26 60
e 29 60
e 35 60
e 38 60
e 52 60
e 57 60
e 14 61
e 27 61
e 35 61
e 47 61
e 54 61
e 55 61
e 57 61
e 59 61
e 21 62
e 26 62
e 30 62
e 36 62
e 40 62
e 52 62
e 60 62
e 61 62
e 3 63
e 11 63
e 14 63
e 28 63
e 45 63
e 52 63
e 2 64
e 4 64
e 5 64
e 10 64
e 11 64
e 14 64
e 19 64
e 25 64
e 31 64
e 32 64
e 37 64
e 38 64
e 39 64
e 50 64
e 54 64
e 15 65
e 24 65
e 27 65
e 30 65
e 48 65
e 55 65
e 59 65
e 60 65
e 5 66
e 24 66
e 28 66
e 29 66
e 39 66
e 57 66
e 58 66
e 62 66
e 64 66
e 6 67
e 16 67
e 22 67
e 23 67
e 26 67
e 29 67
e 32 67
e 42 67
e 45 67
e 47 67
e 57 67
e 64 67
e 66 67
e 12 68
e 14 68
e 16 68
e 22 68
e 29 68
e 39 68
e 41 68
e 52 68
e 3 69
e 5 69
e 12 69
e 20 69
e 24 69
e 26 69
e 28 69
e 29 69
e 41 69
e 45 69
e 52 69
e 64 69
e 67 69
e 2 70
e 15 70
e 20 70
e 24 70
e 25 70
e 33 70
e 35 70
e 43 70
e 54 70
e 62 70
e 68 70
